[113,83,58,118,76,70,70,79,112,78,66,58,60,63,73,100,60,48,62,56,67,64,76,52,80,101,80,45,87,80,83,54,82,82,42,102,85,40,68,59,56,40,61,73,62,62,98,53,64,55,63,54,50,42,93,50,36,52,36,72,60,48,43,40,64,83,62,84,48,60,69,46,40,45,42,60,40,30]